62
1112
600
807
94
596
74
460
78
883
493
206
52
9356
275
696
10459
190
871
212
209
199
160
580
148
39
418
503
64
162
128
210
220
1243
333
71
65
80
518
557
97
2431
336
291
2331
452
88
198
716
496
113
60
180
502
127
5607
156
1709
397
348
441
115
262
1416
467
913
1931
61
1848
75
2760
128
263
90
124
1511
2297
293
145
187
605
324
260
9700
216
166
604
570
468
149
913
99
1899
66
46
120
10124
78
143
285
